NAME: n40q20G.tsp, 40 nodes, semilla 666
COMMENT: Problema aleatorio de norma euclidea
DIMENSION: 40
CAPACITY: 20
EDGE_WEIGHT_TYPE: EUC_2D
NODE_COORD_SECTION
1   0.0000   0.0000
2 235.0000 -286.0000
3 -447.0000 493.0000
4  60.0000 350.0000
5 -467.0000 374.0000
6 500.0000 390.0000
7 169.0000 153.0000
8 -413.0000 -465.0000
9 254.0000 -350.0000
10 -15.0000 -331.0000
11 -493.0000 341.0000
12 -223.0000  27.0000
13 305.0000 -209.0000
14 -60.0000 443.0000
15  35.0000 331.0000
16 -487.0000 -365.0000
17 -310.0000 -272.0000
18 347.0000  65.0000
19 416.0000 161.0000
20 299.0000 -15.0000
21 -173.0000 157.0000
22 360.0000 -12.0000
23 -291.0000 -184.0000
24 341.0000 299.0000
25 -15.0000 474.0000
26 -294.0000 -340.0000
27 -328.0000 134.0000
28 245.0000 108.0000
29 -403.0000 -282.0000
30 474.0000 -250.0000
31 -378.0000 413.0000
32 -240.0000 363.0000
33 -251.0000 -387.0000
34 -217.0000  74.0000
35 -379.0000  43.0000
36 -329.0000  34.0000
37 -408.0000 -209.0000
38 226.0000 -290.0000
39 368.0000 464.0000
40 -204.0000 -424.0000
DISPLAY_DATA_SECTION:
 1  250  250
 2  367  107
 3   26  496
 4  280  425
 5   16  437
 6  500  445
 7  334  326
 8   43   17
 9  377   75
10  242   84
11    3  420
12  138  263
13  402  145
14  220  471
15  267  415
16    6   67
17   95  114
18  423  282
19  458  330
20  399  242
21  163  328
22  430  244
23  104  158
24  420  399
25  242  487
26  103   80
27   86  317
28  372  304
29   48  109
30  487  125
31   61  456
32  130  431
33  124   56
34  141  287
35   60  271
36   85  267
37   46  145
38  363  105
39  434  482
40  148   38
DEMAND_SECTION
1 -6
2 -7
3 -2
4 4
5 6
6 -7
7 -10
8 9
9 0
10 3
11 1
12 4
13 6
14 2
15 -7
16 1
17 -2
18 4
19 -3
20 7
21 -7
22 1
23 3
24 4
25 -3
26 1
27 -2
28 1
29 -5
30 7
31 5
32 7
33 -4
34 -7
35 3
36 -2
37 6
38 -2
39 -10
40 1
EOF